98 98
45 80
42 96
34 29
33 60
5 22
11 5
29 51
31 95
29 50
6 55
8 17
17 52
22 78
37 24
21 30
30 98
35 43
26 64
46 23
48 62
27 45
20 41
40 40
15 37
7 8
47 31
13 94
41 82
4 97
10 47
7 92
49 53
37 26
24 71
1 88
36 27
17 81
20 54
14 20
15 11
43 1
41 28
43 39
21 32
39 13
36 14
3 9
48 67
32 89
6 70
5 90
27 58
22 25
23 19
33 93
28 48
12 46
42 63
3 86
32 4
10 2
8 3
45 21
2 18
35 79
40 74
46 34
18 42
19 16
14 68
49 73
11 61
9 15
23 7
26 84
16 12
39 72
25 49
31 10
18 66
34 91
38 77
2 59
24 33
9 38
38 85
13 83
30 56
25 69
1 57
19 65
12 44
44 87
4 76
44 75
16 36
28 35
47 6
